Maximize
  13 x0 - 27 x1 + 0 x2 + 36 x3 - 34 x4 - 43 x5 + 0 x6 - 16 x7 + 0 x8 - 11 x9
   + 31 x10 + 36 x11 + 0 x12 + 0 x13 + 0 x14 - 17 x15 - 11 x16 + 0 x17
   + 35 x18 - 6 x19 + 0 x20 + 34 x21 + 0 x22 + 3 x23 + 22 x24 + 0 x25
   - 29 x26 + 0 x27 + 20 x28 + 7 x29 + 6 x30 + 16 x31 + 16 x32 - 34 x33
   + 0 x34 - 36 x35 - 21 x36 + 11 x37 - 29 x38 - 43 x39 + [ 42 x0 * x1
   - 68 x0 * x2 + 6 x0 * x5 - 96 x0 * x7 + 86 x0 * x8 + 20 x0 * x9
   + 32 x0 * x12 - 20 x0 * x13 - 52 x0 * x14 - 64 x0 * x15 + 4 x0 * x16
   + 78 x0 * x18 - 30 x0 * x21 - 52 x0 * x22 - 94 x0 * x23 - 46 x0 * x24
   + 46 x0 * x26 - 14 x0 * x27 - 26 x0 * x28 + 22 x0 * x29 + 72 x0 * x30
   + 52 x0 * x31 - 42 x0 * x32 + 82 x0 * x34 + 88 x0 * x35 - 26 x0 * x36
   - 52 x0 * x37 + 26 x0 * x38 - 22 x1 * x2 + 90 x1 * x3 - 40 x1 * x4
   - 98 x1 * x5 - 16 x1 * x6 - 84 x1 * x7 - 44 x1 * x8 + 88 x1 * x9
   + 56 x1 * x11 + 52 x1 * x12 - 76 x1 * x13 - 64 x1 * x15 - 48 x1 * x16
   + 78 x1 * x17 - 78 x1 * x18 - 28 x1 * x19 + 70 x1 * x20 + 80 x1 * x22
   + 62 x1 * x23 + 40 x1 * x25 + 22 x1 * x27 - 16 x1 * x31 - 2 x1 * x32
   + 28 x1 * x33 - 56 x1 * x35 - 80 x1 * x36 - 58 x1 * x37 + 66 x1 * x39
   - 42 x2 ^2 - 54 x2 * x5 - 90 x2 * x6 - 68 x2 * x8 - 70 x2 * x11
   - 12 x2 * x12 - 76 x2 * x13 - 14 x2 * x14 - 80 x2 * x15 - 18 x2 * x16
   + 98 x2 * x19 + 54 x2 * x21 - 80 x2 * x22 - 40 x2 * x24 + 48 x2 * x25
   - 92 x2 * x27 - 50 x2 * x28 + 44 x2 * x29 - 24 x2 * x30 + 70 x2 * x31
   - 56 x2 * x33 - 52 x2 * x35 - 22 x2 * x36 - 62 x2 * x38 + 33 x3 ^2
   + 30 x3 * x5 + 16 x3 * x6 - 4 x3 * x7 + 24 x3 * x9 - 68 x3 * x10
   - 4 x3 * x11 + 26 x3 * x13 + 70 x3 * x14 - 10 x3 * x15 + 6 x3 * x16
   + 44 x3 * x17 - 88 x3 * x18 - 10 x3 * x19 - 16 x3 * x20 - 30 x3 * x21
   - 98 x3 * x24 - 98 x3 * x25 - 34 x3 * x26 - 70 x3 * x28 - 98 x3 * x29
   - 52 x3 * x30 + 60 x3 * x31 + 38 x3 * x32 - 98 x3 * x34 + 82 x3 * x35
   + 76 x3 * x36 - 92 x3 * x39 - 12 x4 * x5 - 2 x4 * x6 + 14 x4 * x7
   + 20 x4 * x8 - 58 x4 * x9 + 4 x4 * x13 + 30 x4 * x14 + 40 x4 * x16
   - 30 x4 * x17 - 68 x4 * x18 + 22 x4 * x19 - 8 x4 * x20 - 38 x4 * x24
   + 74 x4 * x25 - 76 x4 * x26 + 18 x4 * x28 + 94 x4 * x29 - 94 x4 * x30
   + 24 x4 * x31 + 90 x4 * x34 + 74 x4 * x35 + 28 x4 * x36 - 36 x4 * x38
   + 22 x4 * x39 - 4 x5 ^2 - 94 x5 * x6 + 30 x5 * x8 - 54 x5 * x11
   - 34 x5 * x12 - 26 x5 * x13 - 30 x5 * x14 + 74 x5 * x16 - 40 x5 * x17
   - 2 x5 * x22 + 96 x5 * x23 - 28 x5 * x24 - 90 x5 * x25 - 10 x5 * x27
   + 10 x5 * x28 + 76 x5 * x37 + 44 x5 * x38 - 70 x5 * x39 + 3 x6 ^2
   - 90 x6 * x7 - 34 x6 * x9 - 94 x6 * x10 - 74 x6 * x12 - 74 x6 * x13
   + 38 x6 * x15 + 4 x6 * x16 + 36 x6 * x17 + 72 x6 * x18 + 38 x6 * x20
   + 16 x6 * x22 - 70 x6 * x23 + 66 x6 * x24 - 2 x6 * x25 - 52 x6 * x27
   + 22 x6 * x29 - 96 x6 * x32 - 68 x6 * x34 + 54 x6 * x35 - 22 x6 * x36
   + 68 x6 * x37 - 44 x6 * x39 - 41 x7 ^2 + 82 x7 * x9 - 12 x7 * x13
   + 24 x7 * x14 - 46 x7 * x16 - 32 x7 * x17 - 6 x7 * x19 - 96 x7 * x21
   - 42 x7 * x22 - 96 x7 * x23 + 88 x7 * x24 + 48 x7 * x25 - 20 x7 * x26
   - 40 x7 * x27 - 42 x7 * x30 + 46 x7 * x32 - 18 x7 * x33 + 78 x7 * x36
   - 74 x7 * x37 - 8 x8 ^2 - 6 x8 * x9 - 36 x8 * x10 + 58 x8 * x11
   + 20 x8 * x13 - 58 x8 * x15 + 68 x8 * x18 - 62 x8 * x19 - 74 x8 * x20
   - 98 x8 * x21 + 22 x8 * x22 + 24 x8 * x23 + 16 x8 * x24 + 88 x8 * x25
   - 88 x8 * x26 - 54 x8 * x27 + 22 x8 * x30 + 54 x8 * x32 + 18 x8 * x35
   + 76 x8 * x37 - 20 x8 * x38 - 74 x8 * x39 + 25 x9 ^2 + 82 x9 * x10
   + 16 x9 * x11 - 2 x9 * x12 + 36 x9 * x16 - 42 x9 * x19 + 56 x9 * x21
   + 2 x9 * x23 - 28 x9 * x24 + 18 x9 * x25 + 88 x9 * x26 - 34 x9 * x27
   - 12 x9 * x28 - 40 x9 * x30 + 6 x9 * x32 - 98 x9 * x34 + 80 x9 * x35
   + 44 x9 * x37 - 94 x9 * x38 - 2 x10 ^2 - 82 x10 * x11 - 32 x10 * x12
   + 84 x10 * x14 + 76 x10 * x17 + 12 x10 * x18 + 86 x10 * x19
   - 32 x10 * x20 + 46 x10 * x23 + 40 x10 * x24 - 62 x10 * x26
   - 2 x10 * x27 + 32 x10 * x30 - 4 x10 * x32 - 12 x10 * x34 - 28 x10 * x36
   - 56 x10 * x37 - 74 x10 * x39 - 14 x11 ^2 + 4 x11 * x12 - 80 x11 * x14
   + 30 x11 * x15 + 90 x11 * x16 + 98 x11 * x17 + 80 x11 * x18
   + 24 x11 * x20 - 32 x11 * x21 - 16 x11 * x22 - 20 x11 * x23
   + 82 x11 * x25 - 72 x11 * x27 + 38 x11 * x31 + 32 x11 * x32
   + 58 x11 * x34 + 28 x11 * x35 + 26 x11 * x36 - 4 x11 * x37
   + 22 x11 * x38 - 20 x11 * x39 - 17 x12 ^2 - 34 x12 * x13 - 16 x12 * x15
   - 32 x12 * x16 - 8 x12 * x19 + 36 x12 * x22 - 92 x12 * x23
   + 40 x12 * x24 + 78 x12 * x25 - 24 x12 * x26 - 42 x12 * x27
   - 70 x12 * x28 + 24 x12 * x29 - 32 x12 * x32 + 84 x12 * x33
   - 50 x12 * x35 + 14 x12 * x36 - 70 x12 * x37 + 80 x12 * x38
   - 80 x12 * x39 + 37 x13 ^2 - 86 x13 * x14 - 86 x13 * x16 + 52 x13 * x17
   + 68 x13 * x18 - 34 x13 * x19 + 12 x13 * x21 - 34 x13 * x22
   - 54 x13 * x24 - 12 x13 * x26 - 80 x13 * x27 - 86 x13 * x29
   - 84 x13 * x30 - 98 x13 * x32 - 46 x13 * x33 - 84 x13 * x34
   + 56 x13 * x35 - 38 x13 * x36 - 60 x13 * x38 + 50 x14 * x15
   + 82 x14 * x16 - 6 x14 * x17 + 74 x14 * x18 - 64 x14 * x21
   + 64 x14 * x22 + 28 x14 * x25 - 26 x14 * x26 - 84 x14 * x27
   + 44 x14 * x28 + 66 x14 * x29 - 32 x14 * x30 - 38 x14 * x31
   - 66 x14 * x32 + 16 x14 * x33 + 12 x14 * x34 + 30 x14 * x35
   - 20 x14 * x36 + 52 x14 * x38 - 29 x15 ^2 - 72 x15 * x16 - 64 x15 * x17
   - 78 x15 * x18 - 66 x15 * x20 - 70 x15 * x21 - 52 x15 * x22
   + 40 x15 * x24 - 6 x15 * x25 + 52 x15 * x26 - 44 x15 * x30
   + 72 x15 * x31 - 70 x15 * x32 + 10 x15 * x33 + 32 x15 * x35
   - 80 x15 * x36 + 18 x15 * x37 - 48 x15 * x38 - 6 x16 ^2 - 70 x16 * x17
   + 70 x16 * x18 - 32 x16 * x19 + 70 x16 * x20 - 70 x16 * x24
   - 38 x16 * x25 + 30 x16 * x26 - 42 x16 * x28 + 88 x16 * x29
   + 38 x16 * x31 - 98 x16 * x33 + 96 x16 * x34 + 32 x16 * x35
   - 48 x16 * x36 - 92 x16 * x37 + 56 x16 * x38 + 20 x16 * x39 - 47 x17 ^2
   - 88 x17 * x18 - 60 x17 * x19 - 94 x17 * x20 + 22 x17 * x23
   - 26 x17 * x24 + 68 x17 * x25 + 26 x17 * x26 + 78 x17 * x27
   - 20 x17 * x28 + 10 x17 * x29 - 82 x17 * x31 - 98 x17 * x33
   - 20 x17 * x34 + 72 x17 * x35 - 42 x17 * x36 + 50 x17 * x38
   - 86 x17 * x39 - 30 x18 ^2 - 66 x18 * x19 + 78 x18 * x20 - 90 x18 * x21
   + 76 x18 * x22 - 60 x18 * x23 - 66 x18 * x24 - 30 x18 * x27
   + 58 x18 * x28 - 12 x18 * x30 + 12 x18 * x31 - 28 x18 * x33
   + 28 x18 * x35 + 20 x18 * x37 + 76 x18 * x39 + 34 x19 * x20
   + 72 x19 * x21 + 62 x19 * x22 - 58 x19 * x24 - 20 x19 * x25
   + 34 x19 * x26 - 76 x19 * x27 + 52 x19 * x28 + 54 x19 * x29
   - 56 x19 * x30 - 72 x19 * x32 + 30 x19 * x33 - 54 x19 * x34
   + 90 x19 * x35 - 6 x19 * x36 - 56 x19 * x37 - 35 x20 ^2 - 64 x20 * x21
   - 4 x20 * x24 - 94 x20 * x26 + 52 x20 * x29 + 88 x20 * x30
   + 28 x20 * x33 - 66 x20 * x34 + 60 x20 * x37 - 90 x20 * x38
   - 2 x20 * x39 - 8 x21 ^2 - 94 x21 * x22 + 54 x21 * x23 + 56 x21 * x24
   - 78 x21 * x25 + 12 x21 * x26 - 42 x21 * x28 - 98 x21 * x29
   + 34 x21 * x30 + 98 x21 * x31 + 4 x21 * x32 - 68 x21 * x34
   - 64 x21 * x38 + 44 x22 ^2 - 60 x22 * x23 + 84 x22 * x24 - 22 x22 * x25
   + 34 x22 * x26 - 22 x22 * x27 + 2 x22 * x28 + 98 x22 * x30
   + 98 x22 * x31 + 74 x22 * x32 + 80 x22 * x33 + 92 x22 * x36
   - 34 x22 * x37 - 20 x22 * x38 + 23 x23 ^2 + 90 x23 * x24 - 6 x23 * x25
   - 64 x23 * x27 + 80 x23 * x28 - 78 x23 * x29 + 74 x23 * x31
   + 82 x23 * x33 - 14 x23 * x34 + 68 x23 * x35 + 52 x23 * x37
   + 30 x23 * x38 - 46 x23 * x39 - 5 x24 ^2 + 88 x24 * x25 + 74 x24 * x28
   - 22 x24 * x30 + 12 x24 * x31 + 88 x24 * x32 + 82 x24 * x33
   - 56 x24 * x34 - 78 x24 * x35 + 16 x24 * x37 - 50 x24 * x38 - 23 x25 ^2
   + 38 x25 * x26 + 52 x25 * x28 + 26 x25 * x30 + 60 x25 * x31
   - 34 x25 * x33 - 48 x25 * x36 + 40 x25 * x37 + 50 x25 * x38
   - 34 x25 * x39 + 18 x26 ^2 + 92 x26 * x29 + 94 x26 * x33 + 2 x26 * x34
   - 26 x26 * x35 - 48 x26 * x36 - 20 x26 * x37 - 86 x26 * x38
   + 34 x26 * x39 - 30 x27 ^2 + 60 x27 * x28 - 18 x27 * x30 - 8 x27 * x31
   - 28 x27 * x33 + 82 x27 * x35 - 84 x27 * x36 + 98 x27 * x37 - 49 x28 ^2
   + 98 x28 * x30 + 2 x28 * x31 - 56 x28 * x34 + 54 x28 * x35
   - 78 x28 * x37 - 36 x28 * x38 + 56 x28 * x39 + 19 x29 ^2 + 76 x29 * x30
   - 32 x29 * x31 + 92 x29 * x33 + 50 x29 * x35 + 20 x29 * x37
   + 44 x29 * x39 - 2 x30 ^2 - 26 x30 * x32 - 94 x30 * x33 - 54 x30 * x35
   - 8 x30 * x36 + 26 x30 * x37 + 88 x30 * x38 - 52 x30 * x39 - 21 x31 ^2
   - 12 x31 * x32 - 92 x31 * x34 - 32 x31 * x36 + 4 x31 * x38
   - 34 x31 * x39 - 48 x32 ^2 + 46 x32 * x33 + 36 x32 * x35 + 62 x32 * x36
   + 84 x32 * x37 - 12 x32 * x38 - 32 x33 ^2 + 74 x33 * x35 + 66 x33 * x36
   + 30 x33 * x37 - 76 x34 * x36 - 14 x34 * x37 + 86 x34 * x38
   + 70 x34 * x39 - 8 x35 ^2 - 32 x35 * x36 + 20 x35 * x37 + 74 x35 * x39
   - 12 x36 ^2 + 18 x36 * x37 + 20 x36 * x39 - 23 x37 ^2 - 30 x37 * x39
   - 11 x38 ^2 - 96 x38 * x39 - 44 x39 ^2 ] / 2 
Subject To
Bounds
 x0 <= 1
 x1 <= 1
 x2 <= 1
 x3 <= 1
 x4 <= 1
 x5 <= 1
 x6 <= 1
 x7 <= 1
 x8 <= 1
 x9 <= 1
 x10 <= 1
 x11 <= 1
 x12 <= 1
 x13 <= 1
 x14 <= 1
 x15 <= 1
 x16 <= 1
 x17 <= 1
 x18 <= 1
 x19 <= 1
 x20 <= 1
 x21 <= 1
 x22 <= 1
 x23 <= 1
 x24 <= 1
 x25 <= 1
 x26 <= 1
 x27 <= 1
 x28 <= 1
 x29 <= 1
 x30 <= 1
 x31 <= 1
 x32 <= 1
 x33 <= 1
 x34 <= 1
 x35 <= 1
 x36 <= 1
 x37 <= 1
 x38 <= 1
 x39 <= 1
End
